CLP/out/Inst09.txt
[[0, 9, 12, 7, 4, 14, 6, 13, 5, 2, 38, 1, 15, 10, 3, 11, 8, 0],[0, 29, 37, 16, 25, 20, 18, 27, 24, 23, 21, 19, 28, 0],[0, 72, 87, 39, 74, 73, 49, 75, 50, 68, 0],[0, 116, 32, 103, 80, 92, 107, 78, 105, 96, 77, 0],[0, 138, 51, 118, 127, 129, 137, 135, 126, 117, 0],[0, 195, 44, 173, 175, 148, 170, 182, 140, 184, 0],[0, 210, 90, 196, 88, 214, 26, 213, 89, 208, 0],[0, 165, 156, 97, 31, 166, 180, 157, 106, 91, 163, 0],[0, 34, 194, 45, 35, 36, 192, 141, 186, 94, 98, 202, 22, 0],[0, 57, 63, 53, 48, 64, 59, 67, 61, 83, 47, 69, 58, 76, 54, 0],[0, 121, 139, 113, 111, 143, 79, 128, 109, 93, 122, 108, 102, 85, 120, 0],[0, 177, 158, 193, 176, 161, 201, 167, 164, 206, 151, 204, 152, 0],[0, 145, 132, 114, 133, 86, 215, 84, 205, 123, 112, 110, 99, 130, 124, 212, 119, 144, 0],[0, 66, 207, 55, 211, 17, 200, 160, 149, 104, 185, 179, 147, 190, 171, 125, 131, 199, 136, 82, 191, 159, 197, 60, 0],[0, 150, 183, 71, 189, 155, 142, 187, 95, 81, 70, 169, 154, 101, 203, 115, 41, 40, 174, 134, 62, 56, 43, 172, 153, 65, 181, 162, 42, 168, 100, 188, 33, 209, 30, 198, 46, 52, 178, 146, 0],[],[],[],[],[]]

Total distance = 19370
